
--- Job bchfcnet.gms Start 02/09/22 13:44:26 34.3.0 rac355f3 WEX-WEI x86 64bit/MS Windows
--- Applying:
    C:\GAMS\34\gmsprmNT.txt
--- GAMS Parameters defined
    Input C:\Users\dekhi\Desktop\gamsworld\FCNetLib\test\bchfcnet.gms
    PageSize 0
    ScrDir C:\Users\dekhi\Desktop\gamsworld\FCNetLib\test\225a\
    SysDir C:\GAMS\34\
    LogOption 3
    ErrMsg 1
    ErrorLog 99
    IDE 1
    ResLim 3600
    LstTitleLeftAligned 1
Licensee: Eval License                                   S211214|0002AW-GEN
          Ostfalia Hochschule fuer angewandte Wissenschaften        DCE1645
          C:\Users\dekhi\Documents\GAMS\gamslice.txt
          License Admin: Mohamed Ali Dekhil, dekhil.medali@gmail.com       
          Evaluation license: Not for commercial or production use
GAMS 34.3.0   Copyright (C) 1987-2021 GAMS Development. All rights reserved
--- Starting compilation
--- bchfcnet.gms(34) 2 Mb
--- . decl.gms(15) 2 Mb
--- bchfcnet.gms(38) 2 Mb
--- . p50x288b.inc(627) 3 Mb
--- bchfcnet.gms(67) 3 Mb
--- . equs.gms(20) 3 Mb
--- bchfcnet.gms(97) 3 Mb
--- call rm -f bchout_i.gdx startcut.txt startheur.txt cuthist.gdx agap.txt rgap.txt cntfail.txt
--- bchfcnet.gms(118) 3 Mb
--- Starting execution: elapsed 0:00:00.089
--- bchfcnet.gms(685) 4 Mb
--- GDX File (execute_unload) C:\Users\dekhi\Desktop\gamsworld\FCNetLib\test\net.gdx
--- bchfcnet.gms(776) 4 Mb
--- GDXin=C:\Users\dekhi\Desktop\gamsworld\FCNetLib\test\points\p50x288b.gdx
--- GDX File (execute_load) C:\Users\dekhi\Desktop\gamsworld\FCNetLib\test\points\p50x288b.gdx
--- Generating MIP model master
--- bchfcnet.gms(780) 4 Mb
---   339 rows  577 columns  1,704 non-zeroes
---   288 discrete-columns
--- Executing CPLEX (Solvelink=2): elapsed 0:00:00.106

IBM ILOG CPLEX   34.3.0 rac355f3 Released Feb 25, 2021 WEI x86 64bit/MS Window

--- GAMS/Cplex Link licensed for continuous and discrete problems.

Reading parameter(s) from "C:\Users\dekhi\Desktop\gamsworld\FCNetLib\test\cplex.op2"
>>  mipstart 1
Finished reading from "C:\Users\dekhi\Desktop\gamsworld\FCNetLib\test\cplex.op2"

--- Space for names approximately 0.02 Mb
--- Use option 'names no' to turn use of names off
--- GMO memory 0.61 Mb (peak 0.61 Mb)
--- Dictionary memory 0.00 Mb
--- Cplex 20.1.0.0 link memory 0.02 Mb (peak 0.06 Mb)
--- Starting Cplex

Version identifier: 20.1.0.0 | 2020-11-10 | 9bedb6d68
CPXPARAM_Threads                                 1
CPXPARAM_MIP_Display                             4
CPXPARAM_TimeLimit                               3600
CPXPARAM_MIP_Tolerances_AbsMIPGap                0
CPXPARAM_MIP_Tolerances_MIPGap                   0
Generic callback                                 0x50
Processing 1 MIP starts.
MIP start 'm1' defined solution with objective 21753.0000.
1 of 1 MIP starts provided solutions.
MIP start 'm1' defined initial solution with objective 21753.0000.
Tried aggregator 1 time.
MIP Presolve eliminated 31 rows and 1 columns.
MIP Presolve added 62 rows and 0 columns.
Reduced MIP has 369 rows, 576 columns, and 1214 nonzeros.
Reduced MIP has 288 binaries, 0 generals, 0 SOSs, and 0 indicators.
Presolve time = 0.00 sec. (1.38 ticks)
Probing time = 0.00 sec. (0.07 ticks)
Tried aggregator 1 time.
Detecting symmetries...
Reduced MIP has 369 rows, 576 columns, and 1214 nonzeros.
Reduced MIP has 288 binaries, 0 generals, 0 SOSs, and 0 indicators.
Presolve time = 0.01 sec. (1.44 ticks)
Probing time = 0.00 sec. (0.07 ticks)
MIP emphasis: balance optimality and feasibility.
MIP search method: dynamic search.
Parallel mode: none, using 1 thread.
Tried aggregator 1 time.
LP Presolve eliminated 257 rows and 257 columns.
Aggregator did 31 substitutions.
Reduced LP has 81 rows, 288 columns, and 638 nonzeros.
Presolve time = 0.00 sec. (0.30 ticks)

Iteration log . . .
Iteration:     1   Dual objective     =           234.600000
Initializing dual steep norms . . .
Root relaxation solution time = 0.00 sec. (0.68 ticks)

        Nodes                                         Cuts/
   Node  Left     Objective  IInf  Best Integer    Best Bound    ItCnt     Gap

*     0+    0                        21753.0000        0.0000           100.00%
Found incumbent of value 21753.000000 after 0.01 sec. (4.39 ticks)
      0     0     5818.0400    30    21753.0000     5818.0400       59   73.25%
      0     0    17207.0022    37    21753.0000     Cuts: 112      149   20.90%
      0     0    19146.1189    59    21753.0000      Cuts: 80      208   11.98%
      0     0    19726.6778    52    21753.0000      Cuts: 93      259    9.32%
      0     0    20009.4072    35    21753.0000      Cuts: 83      315    8.02%
      0     0    20504.3410    42    21753.0000      Cuts: 70      360    5.74%
Detecting symmetries...
      0     0    20591.9256    45    21753.0000      Cuts: 38      399    5.34%
      0     0    20678.3710    41    21753.0000      Cuts: 55      430    4.94%
      0     0    20772.4906    52    21753.0000      Cuts: 45      492    4.51%
      0     0    20807.5997    46    21753.0000      Cuts: 48      541    4.35%
      0     0    20857.6649    52    21753.0000      Cuts: 30      583    4.12%
      0     0    20890.2330    56    21753.0000      Cuts: 48      613    3.97%
      0     0    20920.6648    59    21753.0000      Cuts: 60      662    3.83%
      0     0    20942.9733    63    21753.0000      Cuts: 44      712    3.72%
      0     0    20958.8417    59    21753.0000      Cuts: 39      749    3.65%
      0     0    21004.0050    51    21753.0000      Cuts: 25      801    3.44%
      0     0    21035.3325    52    21753.0000      Cuts: 33      832    3.30%
      0     0    21045.7097    45    21753.0000      Cuts: 37      875    3.25%
      0     0    21054.0723    50    21753.0000       Cuts: 5      897    3.21%
      0     0    21059.0545    45    21753.0000      Cuts: 21      907    3.19%
      0     0    21063.2539    45    21753.0000       Cuts: 5      909    3.17%
      0     0    21065.6703    41    21753.0000      Cuts: 27      919    3.16%
Detecting symmetries...
      0     2    21065.6703    41    21753.0000    21065.8430      919    3.16%
Elapsed time = 0.50 sec. (397.80 ticks, tree = 0.01 MB, solutions = 1)
    264   149    21494.4393    36    21753.0000    21176.8028     5454    2.65%
                                                     Cuts: 15                  

Performing restart 1

Repeating presolve.
Tried aggregator 1 time.
MIP Presolve modified 254 coefficients.
Reduced MIP has 369 rows, 576 columns, and 1214 nonzeros.
Reduced MIP has 288 binaries, 0 generals, 0 SOSs, and 0 indicators.
Presolve time = 0.00 sec. (1.25 ticks)
Tried aggregator 1 time.
MIP Presolve modified 20 coefficients.
Reduced MIP has 369 rows, 576 columns, and 1214 nonzeros.
Reduced MIP has 288 binaries, 0 generals, 0 SOSs, and 0 indicators.
Presolve time = 0.00 sec. (1.43 ticks)
Represolve time = 0.00 sec. (5.08 ticks)
Tried aggregator 1 time.
LP Presolve eliminated 6 rows and 3 columns.
Aggregator did 1 substitutions.
Reduced LP has 609 rows, 572 columns, and 5026 nonzeros.
Presolve time = 0.02 sec. (0.57 ticks)
Initializing dual steep norms . . .

Iteration log . . .
Iteration:     1   Dual objective     =           246.000000
Iteration:    73   Dual objective     =          8928.500000
Iteration:   144   Dual objective     =         19811.754807
Iteration:   206   Dual objective     =         20780.905721
Iteration:   268   Dual objective     =         21050.163688
Initializing dual steep norms . . .
    484     0    21094.2653    52    21753.0000      Cuts: 28    10262    2.54%
    484     0    21107.9579    48    21753.0000      Cuts: 57    10295    2.54%
    484     0    21129.3201    54    21753.0000      Cuts: 43    10333    2.54%
    484     0    21137.5940    48    21753.0000      Cuts: 28    10355    2.54%
    484     0    21161.1125    48    21753.0000      Cuts: 23    10396    2.54%
    484     0    21176.4497    46    21753.0000      Cuts: 18    10417    2.54%
    484     0    21185.2579    51    21753.0000      Cuts: 66    10454    2.54%
    484     0    21189.1970    45    21753.0000      Cuts: 18    10479    2.54%
    484     0    21190.6967    57    21753.0000      Cuts: 18    10493    2.54%
    484     0    21191.6495    55    21753.0000      Cuts: 17    10513    2.54%
    484     0    21194.2862    57    21753.0000       Cuts: 7    10524    2.54%
    484     0    21199.3720    46    21753.0000      Cuts: 36    10538    2.54%
    484     0    21202.7074    47    21753.0000      Cuts: 27    10559    2.53%
    484     0    21212.2761    63    21753.0000      Cuts: 33    10577    2.49%
    484     0    21233.9739    59    21753.0000      Cuts: 41    10608    2.39%
    484     0    21245.6745    59    21753.0000      Cuts: 60    10641    2.33%
    484     0    21254.4200    42    21753.0000      Cuts: 45    10670    2.29%
    484     0    21258.4316    53    21753.0000      Cuts: 40    10696    2.27%
    484     0    21260.3989    65    21753.0000      Cuts: 20    10722    2.26%
    484     0    21263.0146    62    21753.0000      Cuts: 17    10753    2.25%
    484     0    21263.9549    63    21753.0000      Cuts: 31    10778    2.25%
    484     0    21264.8284    67    21753.0000      Cuts: 22    10801    2.24%
    484     0    21265.4913    57    21753.0000      Cuts: 28    10814    2.24%
    484     2    21265.4913    57    21753.0000    21265.6144    10814    2.24%
    506    11    21553.8598    12    21753.0000    21267.7045    11367    2.23%
    546    33    21640.5472    37    21753.0000    21271.0391    12516    2.22%
                                                     Cuts: 10                  
    609    61    21327.3741    53    21753.0000    21288.7630    14189    2.13%
                                                     Cuts: 29                  
    699   123    21599.7692    22    21753.0000    21335.0534    17396    1.92%
                                                     Cuts: 20                  
    812   192    21521.2397    37    21753.0000    21364.0486    20448    1.79%
                                                      Cuts: 6                  
    915   226        cutoff          21753.0000    21427.3073    24449    1.50%
                                                      Cuts: 9                  
   1019   251    21661.5539    44    21753.0000    21497.4282    28257    1.17%
                                                     Cuts: 12                  
   1551   261    21701.1016    25    21753.0000    21630.3739    43637    0.56%
                                                     Cuts: 43                  
Elapsed time = 4.00 sec. (4322.37 ticks, tree = 0.70 MB, solutions = 2)

Cover cuts applied:  51
Implied bound cuts applied:  4
Flow cuts applied:  175
Mixed integer rounding cuts applied:  49
Flow path cuts applied:  26
Zero-half cuts applied:  15
Multi commodity flow cuts applied:  4
Lift and project cuts applied:  1
Gomory fractional cuts applied:  15

Root node processing (before b&c):
  Real time             =    0.50 sec. (397.79 ticks)
Sequential b&c:
  Real time             =    3.80 sec. (4296.65 ticks)
                          ------------
Total (root+branch&cut) =    4.30 sec. (4694.45 ticks)

--- MIP status (101): integer optimal solution.
--- Cplex Time: 4.30sec (det. 4694.45 ticks)

--- Fixing integer variables and solving final LP...

Version identifier: 20.1.0.0 | 2020-11-10 | 9bedb6d68
CPXPARAM_Advance                                 2
CPXPARAM_Threads                                 1
CPXPARAM_MIP_Display                             4
CPXPARAM_TimeLimit                               3600
CPXPARAM_MIP_Tolerances_AbsMIPGap                0
CPXPARAM_MIP_Tolerances_MIPGap                   0
Tried aggregator 1 time.
LP Presolve eliminated 338 rows and 577 columns.
All rows and columns eliminated.
Presolve time = 0.00 sec. (0.20 ticks)

--- Fixed MIP status (1): optimal.
--- Cplex Time: 0.00sec (det. 0.35 ticks)


Proven optimal solution
MIP Solution:        21753.000000    (49342 iterations, 1929 nodes)
Final Solve:         21753.000000    (0 iterations)

Best possible:       21753.000000
Absolute gap:            0.000000
Relative gap:            0.000000

--- Reading solution for model master
*** Status: Normal completion
--- Job bchfcnet.gms Stop 02/09/22 13:44:30 elapsed 0:00:04.466
